$rem
METHOD HF
BASIS gen
SYMMETRY false
SYM_IGNORE true
UNRESTRICTED      TRUE
SCF_MAX_CYCLES = 1000
SCF_CONVERGENCE = 7
SCF_ALGORITHM = GDM
$end
$basis
C     0 
S   6   1.00
   4563.2400000              0.00196665       
    682.0240000              0.0152306        
    154.9730000              0.0761269        
     44.4553000              0.2608010        
     13.0290000              0.6164620        
      1.8277300              0.2210060        
SP   3   1.00
     20.9642000              0.1146600              0.0402487        
      4.8033100              0.9199990              0.2375940        
      1.4593300             -0.00303068             0.8158540        
SP   1   1.00
      0.4834560              1.0000000              1.0000000        
SP   1   1.00
      0.1455850              1.0000000              1.0000000        
****
N     0 
S   6   1.00
   6293.4800000              0.00196979       
    949.0440000              0.0149613        
    218.7760000              0.0735006        
     63.6916000              0.2489370        
     18.8282000              0.6024600        
      2.7202300              0.2562020        
SP   3   1.00
     30.6331000              0.1119060              0.0383119        
      7.0261400              0.9216660              0.2374030        
      2.1120500             -0.00256919             0.8175920        
SP   1   1.00
      0.6840090              1.0000000              1.0000000        
SP   1   1.00
      0.2008780              1.0000000              1.0000000        
****
I     0 
S   5   1.00
 444750.0000000              0.0008900        
  66127.0000000              0.0069400        
  14815.0000000              0.0360900        
   4144.9000000              0.1356800        
   1361.2000000              0.3387800        
S   2   1.00
    508.4400000              0.4365900        
    209.5900000              0.1837500        
S   1   1.00
     81.9590000              1.0000000        
S   1   1.00
     36.8050000              1.0000000        
S   1   1.00
     13.4950000              1.0000000        
S   1   1.00
      6.8859000              1.0000000        
S   1   1.00
      2.5520000              1.0000000        
S   1   1.00
      1.2088000              1.0000000        
S   1   1.00
      0.2734000              1.0000000        
S   1   1.00
      0.1009000              1.0000000        
P   4   1.00
   2953.6000000              0.0122100        
    712.6100000              0.0858700        
    236.7100000              0.2949300        
     92.6310000              0.4784900        
P   1   1.00
     39.7320000              1.0000000        
P   1   1.00
     17.2730000              1.0000000        
P   1   1.00
      7.9570000              1.0000000        
P   1   1.00
      3.1529000              1.0000000        
P   1   1.00
      1.3328000              1.0000000        
P   1   1.00
      0.4947000              1.0000000        
P   1   1.00
      0.2160000              1.0000000        
P   1   1.00
      0.0829300              1.0000000        
D   3   1.00
    261.9500000              0.0314400        
     76.7340000              0.1902800        
     27.5510000              0.4724700        
D   1   1.00
     10.6060000              1.0000000        
D   1   1.00
      3.4217000              1.0000000        
D   1   1.00
      1.1370000              1.0000000        
****
$end


@@@
$molecule
read
$end
$rem
METHOD CIS
BASIS gen
SCF_GUESS read
UNRESTRICTED      TRUE
SCF_MAX_CYCLES = 1000
GUI = 2
MOM_START 1
UNRESTRICTED true
SYMMETRY false
SYM_IGNORE true
CIS_N_ROOTS 33
TRNSS true ! use truncated subspace for TDDFT
TRTYPE 3 ! specify occupied orbitals
CUTVIR 15 ! truncate high energy virtual orbitals
N_SOL 1 ! number core orbitals, specified in $solute section
$end
$solute
15
$end
$occupied
1 2 3 4 5 6 7 8 9 10 11 12 13 14 15 16 17 18 19 20 21 22 23 24 25 26 27 28 29 30 31 32 33
1 2 3 4 5 6 7 8 9 10 11 12 13 14 15 16 17 18 19 20 21 22 23 24 25 26 27 28 29 30 31 32 34
$end
$basis
C     0 
S   6   1.00
   4563.2400000              0.00196665       
    682.0240000              0.0152306        
    154.9730000              0.0761269        
     44.4553000              0.2608010        
     13.0290000              0.6164620        
      1.8277300              0.2210060        
SP   3   1.00
     20.9642000              0.1146600              0.0402487        
      4.8033100              0.9199990              0.2375940        
      1.4593300             -0.00303068             0.8158540        
SP   1   1.00
      0.4834560              1.0000000              1.0000000        
SP   1   1.00
      0.1455850              1.0000000              1.0000000        
****
N     0 
S   6   1.00
   6293.4800000              0.00196979       
    949.0440000              0.0149613        
    218.7760000              0.0735006        
     63.6916000              0.2489370        
     18.8282000              0.6024600        
      2.7202300              0.2562020        
SP   3   1.00
     30.6331000              0.1119060              0.0383119        
      7.0261400              0.9216660              0.2374030        
      2.1120500             -0.00256919             0.8175920        
SP   1   1.00
      0.6840090              1.0000000              1.0000000        
SP   1   1.00
      0.2008780              1.0000000              1.0000000        
****
I     0 
S   5   1.00
 444750.0000000              0.0008900        
  66127.0000000              0.0069400        
  14815.0000000              0.0360900        
   4144.9000000              0.1356800        
   1361.2000000              0.3387800        
S   2   1.00
    508.4400000              0.4365900        
    209.5900000              0.1837500        
S   1   1.00
     81.9590000              1.0000000        
S   1   1.00
     36.8050000              1.0000000        
S   1   1.00
     13.4950000              1.0000000        
S   1   1.00
      6.8859000              1.0000000        
S   1   1.00
      2.5520000              1.0000000        
S   1   1.00
      1.2088000              1.0000000        
S   1   1.00
      0.2734000              1.0000000        
S   1   1.00
      0.1009000              1.0000000        
P   4   1.00
   2953.6000000              0.0122100        
    712.6100000              0.0858700        
    236.7100000              0.2949300        
     92.6310000              0.4784900        
P   1   1.00
     39.7320000              1.0000000        
P   1   1.00
     17.2730000              1.0000000        
P   1   1.00
      7.9570000              1.0000000        
P   1   1.00
      3.1529000              1.0000000        
P   1   1.00
      1.3328000              1.0000000        
P   1   1.00
      0.4947000              1.0000000        
P   1   1.00
      0.2160000              1.0000000        
P   1   1.00
      0.0829300              1.0000000        
D   3   1.00
    261.9500000              0.0314400        
     76.7340000              0.1902800        
     27.5510000              0.4724700        
D   1   1.00
     10.6060000              1.0000000        
D   1   1.00
      3.4217000              1.0000000        
D   1   1.00
      1.1370000              1.0000000        
****
$end




